17714
18776
19317
19778
19977
20095
20216
20302
20370
20396
20439
20462
20487
20499
20510
20522
20528
20531
20535
20538
20546
20552
20559
20563
20570
20574
20577
20582
20584
20585
20587
20589
20592
20596
20602
20607
20610
20613
20614
20618
20623
20628
20634
20640
20648
20650
20652
20654
20656
20659
20664
20668
20672
20680
20684
20685
20686
20688
20689
20692
20698
20702
20705
20710
20713
20720
20724
20728
20734
20740
20749
20761
20764
20764
20764
20765
20765
20766
20766
20767
20769
20770
20771
20774
20777
20779
20779
20780
20780
20781
20782
20783
20785
20787
20790
20793
20793
20793
20793
